%chk=water_sp_dft.chk
%mem=90GB
#P B3LYP/aug-cc-pVQZ
   Freq

Water molecule H2O B3LYP/aug-cc-pVQZ SP & Freq.

0 1
O  0.000000   0.000000   0.000000
H  0.000000   0.757000   0.587000
H  0.000000  -0.757000   0.587000

